GLPSOL--GLPK LP/MIP Solver 5.0
Parameter(s) specified in the command line:
 --lp ../modeles/3_439.lp --log 3_439.log
Reading problem data from '../modeles/3_439.lp'...
1330 rows, 2640 columns, 9234 non-zeros
1317 integer variables, all of which are binary
3979 lines were read
GLPK Integer Optimizer 5.0
1330 rows, 2640 columns, 9234 non-zeros
1317 integer variables, all of which are binary
Preprocessing...
1302 constraint coefficient(s) were reduced
1330 rows, 2637 columns, 9231 non-zeros
1317 integer variables, all of which are binary
Scaling...
 A: min|aij| =  2.076e-05  max|aij| =  4.000e+00  ratio =  1.927e+05
GM: min|aij| =  4.773e-02  max|aij| =  2.095e+01  ratio =  4.390e+02
EQ: min|aij| =  2.278e-03  max|aij| =  1.000e+00  ratio =  4.390e+02
2N: min|aij| =  1.953e-03  max|aij| =  1.759e+00  ratio =  9.006e+02
Constructing initial basis...
Size of triangular part is 1330
Solving LP relaxation...
GLPK Simplex Optimizer 5.0
1330 rows, 2637 columns, 9231 non-zeros
      0: obj =   6.000000000e+00 inf =   1.450e+01 (7)
     68: obj =   4.999714612e-01 inf =   0.000e+00 (0)
*   226: obj =  -1.732025346e+00 inf =   1.004e-15 (0)
OPTIMAL LP SOLUTION FOUND
Integer optimization begins...
Long-step dual simplex will be used
+   226: mip =     not found yet >=              -inf        (1; 0)
+   448: >>>>>  -1.732025346e+00 >=  -1.732025346e+00 < 0.1% (223; 0)
+   448: mip =  -1.732025346e+00 >=     tree is empty   0.0% (0; 445)
INTEGER OPTIMAL SOLUTION FOUND
Time used:   0.4 secs
Memory used: 3.8 Mb (4032135 bytes)
